
  22   10
  10   10   10   10   10   10   10   10   10   10

   0   0   0   0   0   0   0   0   0   0   0   4 2 3 4 5 
  10  10  10  10  10  10  10  10  10  10  10   2 8 7 
   3  10  10  10  10  10  10  10  10  10  10   1 6 
   4  10  10  10  10  10  10  10  10  10  10   4 15 13 11 9 
   3  10  10  10  10  10  10  10  10  10  10   3 15 9 8 
   8  10  10  10  10  10  10  10  10  10  10   2 11 7 
  10  10  10  10  10  10  10  10  10  10  10   2 15 9 
   6  10  10  10  10  10  10  10  10  10  10   2 11 10 
   2  10  10  10  10  10  10  10  10  10  10   1 10 
  10  10  10  10  10  10  10  10  10  10  10   2 18 12 
   4  10  10  10  10  10  10  10  10  10  10   3 21 18 14 
   6  10  10  10  10  10  10  10  10  10  10   2 21 14 
   4  10  10  10  10  10  10  10  10  10  10   3 21 20 16 
   1  10  10  10  10  10  10  10  10  10  10   2 20 16 
   2  10  10  10  10  10  10  10  10  10  10   1 16 
   2  10  10  10  10  10  10  10  10  10  10   1 17 
   3  10  10  10  10  10  10  10  10  10  10   1 19 
   1  10  10  10  10  10  10  10  10  10  10   1 19 
   6  10  10  10  10  10  10  10  10  10  10   1 22
  10  10  10  10  10  10  10  10  10  10  10   1 22
   2  10  10  10  10  10  10  10  10  10  10   1 22
   0   0   0   0   0   0   0   0   0   0   0   0 
